1622
17 61 76 48 82 69 31 64 14 54 25 5 8 44 51 7 84 79 58 41 77 95 9 65 73 42 98 75 66 80 78 15 52 22 30 97 34 70 47 89 71 4 39 6 2 26 21 32 87 99 86 36 23 90 50 19 83 20 28 72 55 24 68 74 49 35 56 60 92 40 10 1 37 3 29 93 27 62 85 88 13 94 16 43 57 81 12 38 53 91 11 45 67 33 18 59 96 46 63 
